data/solutions/planning/wellformed/moderate/sequential/wellformed_moderate_instance35_cplex.sol
Elapsed time: 3.14
Nodes explored: -
Nodes left: -
Relative gap: -
Upper bound: 106587.0
Lower bound: -
C[0]=7106.0
C[1]=7106.0
C[2]=7105.0
C[3]=7105.0
y[0]=3
y[1]=3
y[2]=0
y[3]=3
y[4]=1
y[5]=2
y[6]=0
y[7]=1
y[8]=2
y[9]=3
y[10]=0
y[11]=2
y[12]=3
y[13]=0
y[14]=1
y[15]=0
y[16]=3
y[17]=0
y[18]=1
y[19]=3
y[20]=1
y[21]=1
y[22]=2
y[23]=1
y[24]=2
y[25]=2
y[26]=3
y[27]=0
y[28]=1
y[29]=3
