data/solutions/planning/wellformed/moderate/sequential/wellformed_moderate_instance35_cplex.log
Found incumbent of value 28422.000000 after 0.00 sec. (0.01 ticks)
Tried aggregator 2 times.
Aggregator did 2 substitutions.
Reduced MIP has 35 rows, 122 columns, and 246 nonzeros.
Reduced MIP has 120 binaries, 0 generals, 0 SOSs, and 0 indicators.
Presolve time = 0.00 sec. (0.30 ticks)
Probing fixed 0 vars, tightened 8 bounds.
Probing time = 0.00 sec. (0.18 ticks)
Tried aggregator 1 time.
Reduced MIP has 35 rows, 122 columns, and 246 nonzeros.
Reduced MIP has 120 binaries, 2 generals, 0 SOSs, and 0 indicators.
Presolve time = 0.00 sec. (0.16 ticks)
Probing time = 0.00 sec. (0.10 ticks)
Clique table members: 30.
MIP emphasis: balance optimality and feasibility.
MIP search method: dynamic search.
Parallel mode: none, using 1 thread.
Root relaxation solution time = 0.00 sec. (0.18 ticks)

        Nodes                                         Cuts/
   Node  Left     Objective  IInf  Best Integer    Best Bound    ItCnt     Gap

*     0+    0                        28422.0000        0.0000           100.00%
      0     0     7105.5000     8    28422.0000     7105.5000       52   75.00%
*     0+    0                         7518.0000     7105.5000             5.49%
      0     0     7105.5000    12     7518.0000       Cuts: 7       62    5.49%
      0     0     7105.5000    11     7518.0000       Cuts: 5       65    5.49%
      0     2     7105.5000    11     7518.0000     7105.5000       65    5.49%
Elapsed time = 0.01 sec. (3.40 ticks, tree = 0.01 MB, solutions = 2)
*    20+   18                         7382.0000     7105.5000             3.75%
*    30+   28                         7306.0000     7105.5000             2.74%
*    60+   55                         7288.0000     7105.5000             2.50%
*    60+   55                         7281.0000     7105.5000             2.41%
*   150+   69                         7139.0000     7105.5000             0.47%
*   800   367      integral     0     7126.0000     7105.5000     1600    0.29%
*  1328   462      integral     0     7125.0000     7105.5000     2463    0.27%
*  1490+  455                         7117.0000     7105.5000             0.16%
*  2791+  216                         7114.0000     7106.0000             0.11%
   2891   215     7108.0000     4     7114.0000     7106.0000     5070    0.11%
   2892   214    infeasible           7114.0000     7106.0000     5070    0.11%
   2893   215     7112.0000     2     7114.0000     7106.0000     5071    0.11%
   2894   216     7112.0000     2     7114.0000     7106.0000     5072    0.11%
   2895   217     7112.0000     2     7114.0000     7106.0000     5074    0.11%
   2896   218     7112.0000     2     7114.0000     7106.0000     5075    0.11%
   2897   217    infeasible           7114.0000     7106.0000     5075    0.11%
   2898   216    infeasible           7114.0000     7106.0000     5075    0.11%
   2899   215        cutoff           7114.0000     7106.0000     5078    0.11%
*  4070   257      integral     0     7113.0000     7106.0000     6812    0.10%
*  5494   328      integral     0     7111.0000     7106.0000     9050    0.07%
*  6467     0      integral     0     7106.0000     7106.0000    10540    0.00%

Mixed integer rounding cuts applied:  1

Root node processing (before b&c):
  Real time             =    0.01 sec. (3.41 ticks)
Sequential b&c:
  Real time             =    0.71 sec. (492.61 ticks)
                          ------------
Total (root+branch&cut) =    0.72 sec. (496.02 ticks)
2 of 14 MIP starts provided solutions.
MIP start 'm1' defined initial solution with objective 7106.0000.
Tried aggregator 2 times.
MIP Presolve eliminated 1 rows and 0 columns.
Aggregator did 1 substitutions.
Reduced MIP has 36 rows, 123 columns, and 248 nonzeros.
Reduced MIP has 120 binaries, 0 generals, 0 SOSs, and 0 indicators.
Presolve time = 0.00 sec. (0.25 ticks)
Probing time = 0.00 sec. (0.10 ticks)
Cover probing fixed 0 vars, tightened 4 bounds.
Tried aggregator 1 time.
Reduced MIP has 36 rows, 123 columns, and 248 nonzeros.
Reduced MIP has 120 binaries, 3 generals, 0 SOSs, and 0 indicators.
Presolve time = 0.00 sec. (0.17 ticks)
Probing time = 0.00 sec. (0.09 ticks)
Clique table members: 30.
MIP emphasis: balance optimality and feasibility.
MIP search method: dynamic search.
Parallel mode: none, using 1 thread.
Root relaxation solution time = 0.00 sec. (0.26 ticks)

        Nodes                                         Cuts/
   Node  Left     Objective  IInf  Best Integer    Best Bound    ItCnt     Gap

*     0+    0                         7106.0000        0.0000           100.00%
      0     0     7105.3333     8     7106.0000     7105.3333       65    0.01%
      0     0        cutoff           7106.0000     7105.3333       65    0.01%
Elapsed time = 0.00 sec. (1.18 ticks, tree = 0.01 MB, solutions = 1)

Root node processing (before b&c):
  Real time             =    0.00 sec. (1.18 ticks)
Sequential b&c:
  Real time             =    0.00 sec. (0.00 ticks)
                          ------------
Total (root+branch&cut) =    0.00 sec. (1.18 ticks)
1 of 1 MIP starts provided solutions.
MIP start 'm1' defined initial solution with objective 7106.0000.
Tried aggregator 2 times.
MIP Presolve eliminated 3 rows and 0 columns.
Aggregator did 1 substitutions.
Reduced MIP has 36 rows, 123 columns, and 248 nonzeros.
Reduced MIP has 120 binaries, 0 generals, 0 SOSs, and 0 indicators.
Presolve time = 0.00 sec. (0.26 ticks)
Probing time = 0.00 sec. (0.10 ticks)
Cover probing fixed 0 vars, tightened 4 bounds.
Tried aggregator 1 time.
Reduced MIP has 36 rows, 123 columns, and 248 nonzeros.
Reduced MIP has 120 binaries, 3 generals, 0 SOSs, and 0 indicators.
Presolve time = 0.00 sec. (0.17 ticks)
Probing time = 0.00 sec. (0.09 ticks)
Clique table members: 30.
MIP emphasis: balance optimality and feasibility.
MIP search method: dynamic search.
Parallel mode: none, using 1 thread.
Root relaxation solution time = 0.00 sec. (0.27 ticks)

        Nodes                                         Cuts/
   Node  Left     Objective  IInf  Best Integer    Best Bound    ItCnt     Gap

*     0+    0                         7106.0000        0.0000           100.00%
      0     0     7105.0000     6     7106.0000     7105.0000       69    0.01%
      0     0     7105.0000    10     7106.0000      Cuts: 15       84    0.01%
      0     0     7105.0000    10     7106.0000      Cuts: 14       90    0.01%
      0     2     7105.0000     6     7106.0000     7105.0000       90    0.01%
Elapsed time = 0.01 sec. (3.86 ticks, tree = 0.01 MB, solutions = 1)
   3062   416     7105.0000     5     7106.0000     7105.0000     5654    0.01%
   3063   415    infeasible           7106.0000     7105.0000     5657    0.01%
   3064   416     7105.0000     5     7106.0000     7105.0000     5658    0.01%
   3065   417     7105.0000     6     7106.0000     7105.0000     5660    0.01%
   3066   418     7105.0000     5     7106.0000     7105.0000     5662    0.01%
   3067   417    infeasible           7106.0000     7105.0000     5663    0.01%
   3068   416    infeasible           7106.0000     7105.0000     5664    0.01%
   3069   417     7105.0000     6     7106.0000     7105.0000     5666    0.01%
   3070   418     7105.0000     6     7106.0000     7105.0000     5667    0.01%
  13680   885     7105.0000     4     7106.0000     7105.0000    23719    0.01%
Elapsed time = 1.39 sec. (957.58 ticks, tree = 0.20 MB, solutions = 1)
* 27487     0      integral     0     7105.0000     7105.0000    47639    0.00%

Cover cuts applied:  1

Root node processing (before b&c):
  Real time             =    0.01 sec. (3.87 ticks)
Sequential b&c:
  Real time             =    2.41 sec. (1696.98 ticks)
                          ------------
Total (root+branch&cut) =    2.42 sec. (1700.85 ticks)
2 of 2 MIP starts provided solutions.
MIP start 'm1' defined initial solution with objective 7105.0000.
Tried aggregator 2 times.
MIP Presolve eliminated 6 rows and 0 columns.
Aggregator did 1 substitutions.
Reduced MIP has 36 rows, 123 columns, and 248 nonzeros.
Reduced MIP has 120 binaries, 0 generals, 0 SOSs, and 0 indicators.
Presolve time = 0.00 sec. (0.25 ticks)
Probing time = 0.00 sec. (0.10 ticks)
Cover probing fixed 0 vars, tightened 4 bounds.
Tried aggregator 1 time.
Reduced MIP has 36 rows, 123 columns, and 248 nonzeros.
Reduced MIP has 120 binaries, 3 generals, 0 SOSs, and 0 indicators.
Presolve time = 0.00 sec. (0.17 ticks)
Probing time = 0.00 sec. (0.09 ticks)
Clique table members: 30.
MIP emphasis: balance optimality and feasibility.
MIP search method: dynamic search.
Parallel mode: none, using 1 thread.
Root relaxation solution time = 0.00 sec. (0.15 ticks)

        Nodes                                         Cuts/
   Node  Left     Objective  IInf  Best Integer    Best Bound    ItCnt     Gap

*     0+    0                         7105.0000        0.0000           100.00%
      0     0        cutoff           7105.0000                     43    0.00%

Root node processing (before b&c):
  Real time             =    0.00 sec. (1.04 ticks)
Sequential b&c:
  Real time             =    0.00 sec. (0.00 ticks)
                          ------------
Total (root+branch&cut) =    0.00 sec. (1.04 ticks)
